% demand
num_movements = 35;
loading_factor = [1950, 2000, 1700, 1550, 1400, 1250, 1150, 2000, 1750, 1500, 950, 950, 850, 800, 800, 1400, 1900, 1600, 950, 1600, 1400, 1050, 1000, 1350, 1700, 950, 2000, 1450, 900, 850, 1650, 1250, 800, 800, 1500];
pickup_time = [0, 0, 0, 0, 0, 0, 0, 1, 1, 2, 2, 2, 2, 2, 2, 3, 4, 4, 5, 5, 5, 5, 6, 6, 6, 6, 6, 6, 7, 7, 7, 8, 9, 9, 9];
delivery_time = [1, 1, 1, 1, 1, 1, 1, 6, 4, 5, 6, 5, 5, 4, 5, 4, 5, 5, 8, 9, 6, 6, 8, 7, 7, 7, 9, 8, 8, 10, 10, 9, 10, 10, 10];

% transporter definition
total_capacity = 11000;
num_decks = 4;
capacity = [3000, 3000, 1000, 4000];

% ways out of decks
num_ways_out = 2;
paths_out = array3d(decks, ways_out, decks, [
% ways out of deck d1
2, 4, 0, 0, 3, 4, 0, 0, 

% ways out of deck d2
4, 0, 0, 0, 0, 0, 0, 0,	

% ways out of deck d3
4, 0, 0, 0, 0, 0, 0, 0,	

% ways out of deck d4
0, 0, 0, 0,	0, 0, 0, 0,	

]);

